m = 2;
n = 6;
capacity = [15, 10];
item_size = [3, 2, 6, 5, 4, 4];
dist_matrix = [|0, 3, 4, 5, 6, 6, 2
             |3, 0, 1, 4, 5, 7, 3
             |4, 1, 0, 5, 6, 6, 4
             |4, 4, 5, 0, 3, 3, 2
             |6, 7, 8, 3, 0, 2, 4
             |6, 7, 8, 3, 2, 0, 4
             |2, 3, 4, 3, 4, 4, 0
             |];
original_indices = [0, 1];
min_path = 8;
max_path = 32;
n_array = [1, 2, 3, 4, 5, 6, 7];
count_array = [1, 1, 1, 1, 1, 1, 8];
max_packs = 5;
origin = 7;
min_packs = 2;
similars = []